1293615
91,55,102,29,5,60,84,42,94,31,43,19,62,2,82,24,15,106,93,45,80,50,83,1,58,28,51,33,81,100,97,34,0,4,44,89,78,66,3,23,108,63,9,65,76,8,36,25,40,37,71,56,74,85,26,68,69,13,38,30,48,10,90,88,96,46,101,53,57,103,21,99,104,92,95,107,77,32,54,105,41,59,87,49,17,75,72,18,61,86,98,70,6,64,11,35,27,7,39,67,12,20,47,79,16,52,14,22,73
